G = array2d(1..nedges, 1..2,
    [
        1, 7,  1, 8,  1, 9,  1,10,
        2, 3,  2, 9,  2,10,
        3, 2,  3, 4,  3, 5,  3, 9,
        4, 3,  4, 5,  4, 6,
        5, 3,  5, 4,  5, 6,
        6, 4,  6, 5,  6, 7,  6, 9,
        7, 6,  7, 8,  7, 1,
        8, 7,  8, 1,
        9, 1,  9, 2,  9, 3,  9, 6,  9,10,
        10, 1,  10, 2,  10, 9
    ]);
